*SPEF "ieee 1481-1999"
*DESIGN "Encoder"
*DATE "19:34:05 Friday August 28, 2026"
*VENDOR "The OpenROAD Project"
*PROGRAM "OpenROAD"
*VERSION "26Q1-1024-gdcf36133a"
*DESIGN_FLOW "NAME_SCOPE LOCAL" "PIN_CAP NONE"
*DIVIDER /
*DELIMITER :
*BUS_DELIMITER []
*T_UNIT 1 NS
*C_UNIT 1 PF
*R_UNIT 1 OHM
*L_UNIT 1 HENRY

*NAME_MAP
*1 Comp[0]
*2 Comp[1]
*3 Comp[2]
*4 Comp[3]
*5 Comp[4]
*6 Comp[5]
*7 Comp[6]
*8 Dout[0]
*9 Dout[1]
*10 Dout[2]
*11 Samp
*12 clk
*13 eoc
*16 _00_
*17 _01_
*18 _02_
*19 _03_
*20 _04_
*21 _05_
*22 _06_
*23 _07_
*24 _08_
*25 _09_
*26 _10_
*27 _11_
*28 _12_
*29 _13_
*30 clknet_0_clk
*31 clknet_1_0__leaf_clk
*32 clknet_1_1__leaf_clk
*33 net1
*34 net10
*35 net11
*36 net12
*37 net2
*38 net3
*39 net4
*40 net5
*41 net6
*42 net7
*43 net8
*44 net9
*45 FILLER_0_15
*46 FILLER_0_27
*47 FILLER_0_29
*48 FILLER_0_3
*49 FILLER_0_39
*50 FILLER_0_51
*51 FILLER_0_55
*52 FILLER_0_57
*53 FILLER_1_15
*54 FILLER_1_27
*55 FILLER_1_3
*56 FILLER_1_36
*57 FILLER_1_51
*58 FILLER_1_55
*59 FILLER_1_57
*60 FILLER_1_77
*61 FILLER_2_15
*62 FILLER_2_27
*63 FILLER_2_29
*64 FILLER_2_3
*65 FILLER_2_41
*66 FILLER_2_53
*67 FILLER_2_75
*68 FILLER_3_15
*69 FILLER_3_27
*70 FILLER_3_3
*71 FILLER_3_39
*72 FILLER_3_51
*73 FILLER_3_55
*74 FILLER_3_57
*75 FILLER_3_69
*76 FILLER_4_15
*77 FILLER_4_19
*78 FILLER_4_27
*79 FILLER_4_3
*80 FILLER_4_34
*81 FILLER_4_46
*82 FILLER_4_58
*83 FILLER_4_80
*84 FILLER_5_11
*85 FILLER_5_22
*86 FILLER_5_3
*87 FILLER_5_32
*88 FILLER_5_44
*89 FILLER_5_57
*90 FILLER_5_74
*91 FILLER_6_11
*92 FILLER_6_22
*93 FILLER_6_33
*94 FILLER_6_45
*95 FILLER_6_57
*96 FILLER_6_76
*97 FILLER_6_80
*98 FILLER_7_11
*99 FILLER_7_19
*100 FILLER_7_34
*101 FILLER_7_46
*102 FILLER_7_54
*103 FILLER_7_57
*104 FILLER_7_69
*105 FILLER_8_15
*106 FILLER_8_27
*107 FILLER_8_3
*108 FILLER_8_36
*109 FILLER_8_48
*110 FILLER_8_60
*111 FILLER_8_72
*112 FILLER_8_80
*113 FILLER_9_15
*114 FILLER_9_27
*115 FILLER_9_29
*116 FILLER_9_3
*117 FILLER_9_39
*118 FILLER_9_51
*119 FILLER_9_55
*120 FILLER_9_57
*121 FILLER_9_79
*122 PHY_EDGE_ROW_0_Left_10
*123 PHY_EDGE_ROW_0_Right_0
*124 PHY_EDGE_ROW_1_Left_11
*125 PHY_EDGE_ROW_1_Right_1
*126 PHY_EDGE_ROW_2_Left_12
*127 PHY_EDGE_ROW_2_Right_2
*128 PHY_EDGE_ROW_3_Left_13
*129 PHY_EDGE_ROW_3_Right_3
*130 PHY_EDGE_ROW_4_Left_14
*131 PHY_EDGE_ROW_4_Right_4
*132 PHY_EDGE_ROW_5_Left_15
*133 PHY_EDGE_ROW_5_Right_5
*134 PHY_EDGE_ROW_6_Left_16
*135 PHY_EDGE_ROW_6_Right_6
*136 PHY_EDGE_ROW_7_Left_17
*137 PHY_EDGE_ROW_7_Right_7
*138 PHY_EDGE_ROW_8_Left_18
*139 PHY_EDGE_ROW_8_Right_8
*140 PHY_EDGE_ROW_9_Left_19
*141 PHY_EDGE_ROW_9_Right_9
*142 TAP_TAPCELL_ROW_0_20
*143 TAP_TAPCELL_ROW_0_21
*144 TAP_TAPCELL_ROW_1_22
*145 TAP_TAPCELL_ROW_2_23
*146 TAP_TAPCELL_ROW_3_24
*147 TAP_TAPCELL_ROW_4_25
*148 TAP_TAPCELL_ROW_5_26
*149 TAP_TAPCELL_ROW_6_27
*150 TAP_TAPCELL_ROW_7_28
*151 TAP_TAPCELL_ROW_8_29
*152 TAP_TAPCELL_ROW_9_30
*153 TAP_TAPCELL_ROW_9_31
*154 _14_
*155 _15_
*156 _16_
*157 _17_
*158 _18_
*159 _19_
*160 _20_
*161 _21_
*162 _22_
*163 _23_
*164 _24_
*165 _25_
*166 _26_
*167 _27_
*168 _28_
*169 _29_
*170 _30_
*171 _31_
*172 clkbuf_0_clk
*173 clkbuf_1_0__f_clk
*174 clkbuf_1_1__f_clk
*175 input1
*176 input2
*177 input3
*178 input4
*179 input5
*180 input6
*181 input7
*182 input8
*183 output10
*184 output11
*185 output12
*186 output9

*PORTS
Comp[0] I
Comp[1] I
Comp[2] I
Comp[3] I
Comp[4] I
Comp[5] I
Comp[6] I
Dout[0] O
Dout[1] O
Dout[2] O
Samp I
clk I
eoc O

*D_NET *1 0.00115785
*CONN
*P Comp[0] I
*I *175:A I *D sky130_fd_sc_hd__buf_2
*CAP
1 Comp[0] 0.000578927
2 *175:A 0.000578927
3 *175:A *182:A 0
*RES
1 Comp[0] *175:A 25.05 
*END

*D_NET *2 0.00133212
*CONN
*P Comp[1] I
*I *176:A I *D sky130_fd_sc_hd__buf_2
*CAP
1 Comp[1] 0.000440511
2 *176:A 0.000440511
3 *176:A *177:A 0.000451093
*RES
1 Comp[1] *176:A 26.1036 
*END

*D_NET *3 0.00140745
*CONN
*P Comp[2] I
*I *177:A I *D sky130_fd_sc_hd__buf_2
*CAP
1 Comp[2] 0.000478179
2 *177:A 0.000478179
3 *176:A *177:A 0.000451093
*RES
1 Comp[2] *177:A 26.3893 
*END

*D_NET *4 0.00109373
*CONN
*P Comp[3] I
*I *178:A I *D sky130_fd_sc_hd__buf_2
*CAP
1 Comp[3] 0.000302398
2 *178:A 0.000302398
3 *178:A *181:A 0.000488938
*RES
1 Comp[3] *178:A 21.9866 
*END

*D_NET *5 0.00109454
*CONN
*P Comp[4] I
*I *179:A I *D sky130_fd_sc_hd__buf_2
*CAP
1 Comp[4] 0.0002054
2 *179:A 0.0002054
3 *179:A *180:A 0.000398249
4 *179:A *181:A 0.000275886
5 *179:A *40:12 9.60337e-06
*RES
1 Comp[4] *179:A 19.1875 
*END

*D_NET *6 0.00130678
*CONN
*P Comp[5] I
*I *180:A I *D sky130_fd_sc_hd__buf_2
*CAP
1 Comp[5] 0.000426655
2 *180:A 0.000426655
3 *180:A *160:A 0
4 *180:A *40:12 4.96722e-05
5 *180:A *42:12 5.54817e-06
6 *179:A *180:A 0.000398249
*RES
1 Comp[5] *180:A 20.69 
*END

*D_NET *7 0.00155165
*CONN
*P Comp[6] I
*I *181:A I *D sky130_fd_sc_hd__buf_2
*CAP
1 Comp[6] 0.000374746
2 *181:A 0.000374746
3 *181:A *39:6 3.73361e-05
4 *178:A *181:A 0.000488938
5 *179:A *181:A 0.000275886
*RES
1 Comp[6] *181:A 24.2914 
*END

*D_NET *8 0.000829482
*CONN
*P Dout[0] O
*I *186:X O *D sky130_fd_sc_hd__buf_2
*CAP
1 Dout[0] 0.000414741
2 *186:X 0.000414741
3 Dout[0] Dout[1] 0
*RES
1 *186:X Dout[0] 18.7025 
*END

*D_NET *9 0.000832674
*CONN
*P Dout[1] O
*I *183:X O *D sky130_fd_sc_hd__buf_2
*CAP
1 Dout[1] 0.000416337
2 *183:X 0.000416337
3 Dout[1] *172:A 0
4 Dout[0] Dout[1] 0
*RES
1 *183:X Dout[1] 18.7025 
*END

*D_NET *10 0.00113236
*CONN
*P Dout[2] O
*I *184:X O *D sky130_fd_sc_hd__buf_2
*CAP
1 Dout[2] 0.000488061
2 *184:X 0.000488061
3 Dout[2] eoc 7.81176e-05
4 Dout[2] *172:A 7.81176e-05
*RES
1 *184:X Dout[2] 24.7829 
*END

*D_NET *11 0.00116308
*CONN
*P Samp I
*I *182:A I *D sky130_fd_sc_hd__buf_2
*CAP
1 Samp 0.000572381
2 *182:A 0.000572381
3 *182:A *155:B_N 1.83136e-05
4 *175:A *182:A 0
*RES
1 Samp *182:A 25.05 
*END

*D_NET *12 0.00139577
*CONN
*P clk I
*I *172:A I *D sky130_fd_sc_hd__clkbuf_16
*CAP
1 clk 0.000569947
2 *172:A 0.000569947
3 *172:A eoc 0.000177759
4 *172:A *184:A 0
5 Dout[1] *172:A 0
6 Dout[2] *172:A 7.81176e-05
*RES
1 clk *172:A 21.4347 
*END

*D_NET *13 0.000855795
*CONN
*P eoc O
*I *185:X O *D sky130_fd_sc_hd__buf_2
*CAP
1 eoc 0.000295705
2 *185:X 0.000295705
3 eoc *185:A 8.50795e-06
4 Dout[2] eoc 7.81176e-05
5 *172:A eoc 0.000177759
*RES
1 *185:X eoc 18.7025 
*END

*D_NET *16 0.000814626
*CONN
*I *168:D I *D sky130_fd_sc_hd__dfxtp_1
*I *154:Y O *D sky130_fd_sc_hd__inv_1
*CAP
1 *168:D 0.000390507
2 *154:Y 0.000390507
3 *168:D *168:CLK 2.40379e-05
4 *168:D *31:12 9.57507e-06
*RES
1 *154:Y *168:D 24.542 
*END

*D_NET *17 0.00182425
*CONN
*I *170:D I *D sky130_fd_sc_hd__dfxtp_1
*I *162:Y O *D sky130_fd_sc_hd__o21ai_0
*CAP
1 *170:D 0.000806308
2 *162:Y 0.000806308
3 *170:D *171:CLK 9.84729e-05
4 *170:D *32:12 0.00011316
*RES
1 *162:Y *170:D 31.3188 
*END

*D_NET *18 0.00189347
*CONN
*I *171:D I *D sky130_fd_sc_hd__dfxtp_1
*I *165:Y O *D sky130_fd_sc_hd__o21ai_0
*CAP
1 *171:D 0.000890386
2 *165:Y 0.000890386
3 *171:D *165:A2 1.12713e-05
4 *171:D *165:B1 7.25873e-06
5 *171:D *21:16 9.41642e-05
*RES
1 *165:Y *171:D 32.1402 
*END

*D_NET *19 0.00224628
*CONN
*I *169:D I *D sky130_fd_sc_hd__dfxtp_1
*I *167:Y O *D sky130_fd_sc_hd__nor2b_1
*CAP
1 *169:D 0.000985226
2 *167:Y 0.000985226
3 *169:D *169:CLK 0.000127067
4 *169:D *173:A 0.000148759
*RES
1 *167:Y *169:D 44.6045 
*END

*D_NET *20 0.0031377
*CONN
*I *161:A I *D sky130_fd_sc_hd__nand3_1
*I *156:D I *D sky130_fd_sc_hd__nand4_1
*I *164:B I *D sky130_fd_sc_hd__nand3_1
*I *155:Y O *D sky130_fd_sc_hd__nor2b_1
*CAP
1 *161:A 3.72236e-05
2 *156:D 1.37772e-05
3 *164:B 1.51266e-05
4 *155:Y 0.000780721
5 *20:20 9.62886e-05
6 *20:16 0.000885329
7 *156:D *164:A 1.02301e-05
8 *161:A *37:16 9.83442e-05
9 *164:B *156:C 0.000100165
10 *164:B *161:C 1.62025e-05
11 *164:B *164:A 3.11088e-05
12 *20:16 *161:C 5.60463e-06
13 *20:16 *162:B1 6.4474e-05
14 *20:16 *167:A 0.000222942
15 *20:16 *167:B_N 0
16 *20:16 *21:10 0.000148514
17 *20:16 *21:16 0.000173021
18 *20:20 *156:B 0.0001871
19 *20:20 *156:C 5.66971e-05
20 *20:20 *161:C 0.000141941
21 *20:20 *164:A 3.90632e-05
22 *20:20 *37:16 1.38323e-05
*RES
1 *155:Y *20:16 33.8893 
2 *20:16 *20:20 3.01786 
3 *20:20 *164:B 10.2464 
4 *20:20 *156:D 9.72857 
5 *20:16 *161:A 10.2464 
*END

*D_NET *21 0.0013962
*CONN
*I *162:A1 I *D sky130_fd_sc_hd__o21ai_0
*I *165:A1 I *D sky130_fd_sc_hd__o21ai_0
*I *167:A I *D sky130_fd_sc_hd__nor2b_1
*I *156:Y O *D sky130_fd_sc_hd__nand4_1
*CAP
1 *162:A1 0
2 *165:A1 0
3 *167:A 0.00010661
4 *156:Y 0.000118622
5 *21:16 0.000231636
6 *21:10 0.000243647
7 *21:10 *164:A 2.85234e-05
8 *21:16 *165:A2 2.85234e-05
9 *171:D *21:16 9.41642e-05
10 *20:16 *167:A 0.000222942
11 *20:16 *21:10 0.000148514
12 *20:16 *21:16 0.000173021
*RES
1 *156:Y *21:10 16.2821 
2 *21:10 *21:16 7.69643 
3 *21:16 *167:A 21.1571 
4 *21:16 *165:A1 9.3 
5 *21:10 *162:A1 13.8 
*END

*D_NET *22 0.000165605
*CONN
*I *158:B I *D sky130_fd_sc_hd__nand2_1
*I *157:Y O *D sky130_fd_sc_hd__xnor2_1
*CAP
1 *158:B 5.27068e-05
2 *157:Y 5.27068e-05
3 *158:B *158:A 6.01916e-05
*RES
1 *157:Y *158:B 19.8679 
*END

*D_NET *23 0.000565124
*CONN
*I *162:A2 I *D sky130_fd_sc_hd__o21ai_0
*I *158:Y O *D sky130_fd_sc_hd__nand2_1
*CAP
1 *162:A2 0.0002683
2 *158:Y 0.0002683
3 *162:A2 *158:A 2.85234e-05
*RES
1 *158:Y *162:A2 22.8321 
*END

*D_NET *24 0.00048617
*CONN
*I *161:B I *D sky130_fd_sc_hd__nand3_1
*I *159:Y O *D sky130_fd_sc_hd__xnor2_1
*CAP
1 *161:B 0.000166508
2 *159:Y 0.000166508
3 *161:B *156:B 7.74135e-05
4 *161:B *159:A 7.57394e-05
*RES
1 *159:Y *161:B 30.2964 
*END

*D_NET *25 0.00185954
*CONN
*I *164:C I *D sky130_fd_sc_hd__nand3_1
*I *161:C I *D sky130_fd_sc_hd__nand3_1
*I *160:Y O *D sky130_fd_sc_hd__nor4_1
*CAP
1 *164:C 2.42756e-05
2 *161:C 0.000197251
3 *160:Y 0.00038461
4 *25:10 0.000606136
5 *161:C *156:C 2.11048e-05
6 *161:C *164:A 0.000240408
7 *161:C *37:16 5.49995e-05
8 *25:10 *165:A2 2.51343e-06
9 *25:10 *165:B1 8.30449e-05
10 *25:10 *166:A1 1.4796e-05
11 *25:10 *166:A2 1.16543e-05
12 *25:10 *40:12 5.49995e-05
13 *164:B *161:C 1.62025e-05
14 *20:16 *161:C 5.60463e-06
15 *20:20 *161:C 0.000141941
*RES
1 *160:Y *25:10 19.7464 
2 *25:10 *161:C 27.4786 
3 *25:10 *164:C 14.5321 
*END

*D_NET *26 0.00032826
*CONN
*I *162:B1 I *D sky130_fd_sc_hd__o21ai_0
*I *161:Y O *D sky130_fd_sc_hd__nand3_1
*CAP
1 *162:B1 0.000117631
2 *161:Y 0.000117631
3 *162:B1 *37:16 2.85234e-05
4 *20:16 *162:B1 6.4474e-05
*RES
1 *161:Y *162:B1 29.7786 
*END

*D_NET *27 0.0013425
*CONN
*I *166:B1 I *D sky130_fd_sc_hd__o21ai_0
*I *165:A2 I *D sky130_fd_sc_hd__o21ai_0
*I *163:Y O *D sky130_fd_sc_hd__nand2_1
*CAP
1 *166:B1 0
2 *165:A2 0.000241904
3 *163:Y 0.00024063
4 *27:12 0.000482533
5 *165:A2 *165:B1 0.0001871
6 *165:A2 *166:A2 1.87331e-05
7 *27:12 *163:A 2.89114e-05
8 *27:12 *165:B1 3.67279e-06
9 *27:12 *167:B_N 9.67039e-05
10 *171:D *165:A2 1.12713e-05
11 *21:16 *165:A2 2.85234e-05
12 *25:10 *165:A2 2.51343e-06
*RES
1 *163:Y *27:12 21.7107 
2 *27:12 *165:A2 13.9786 
3 *27:12 *166:B1 9.3 
*END

*D_NET *28 0.000841387
*CONN
*I *165:B1 I *D sky130_fd_sc_hd__o21ai_0
*I *164:Y O *D sky130_fd_sc_hd__nand3_1
*CAP
1 *165:B1 0.000280155
2 *164:Y 0.000280155
3 *165:A2 *165:B1 0.0001871
4 *171:D *165:B1 7.25873e-06
5 *25:10 *165:B1 8.30449e-05
6 *27:12 *165:B1 3.67279e-06
*RES
1 *164:Y *165:B1 33.7429 
*END

*D_NET *29 0.000751084
*CONN
*I *167:B_N I *D sky130_fd_sc_hd__nor2b_1
*I *166:Y O *D sky130_fd_sc_hd__o21ai_0
*CAP
1 *167:B_N 0.000303952
2 *166:Y 0.000303952
3 *167:B_N *163:B 4.64762e-05
4 *20:16 *167:B_N 0
5 *27:12 *167:B_N 9.67039e-05
*RES
1 *166:Y *167:B_N 33.3679 
*END

*D_NET *30 0.00273054
*CONN
*I *174:A I *D sky130_fd_sc_hd__clkbuf_16
*I *173:A I *D sky130_fd_sc_hd__clkbuf_16
*I *172:X O *D sky130_fd_sc_hd__clkbuf_16
*CAP
1 *174:A 0.000705813
2 *173:A 0.000497424
3 *172:X 0
4 *30:7 0.00120324
5 *173:A *169:CLK 0.000122364
6 *174:A *171:CLK 5.29477e-05
7 *169:D *173:A 0.000148759
*RES
1 *172:X *30:7 13.8 
2 *30:7 *173:A 23.9429 
3 *30:7 *174:A 27.0143 
*END

*D_NET *31 0.00197239
*CONN
*I *169:CLK I *D sky130_fd_sc_hd__dfxtp_1
*I *168:CLK I *D sky130_fd_sc_hd__dfxtp_1
*I *173:X O *D sky130_fd_sc_hd__clkbuf_16
*CAP
1 *169:CLK 0.000232822
2 *168:CLK 0.000116207
3 *173:X 0.000495642
4 *31:12 0.000844672
5 *168:D *168:CLK 2.40379e-05
6 *168:D *31:12 9.57507e-06
7 *169:D *169:CLK 0.000127067
8 *173:A *169:CLK 0.000122364
*RES
1 *173:X *31:12 24.3893 
2 *31:12 *168:CLK 10.9786 
3 *31:12 *169:CLK 23.3536 
*END

*D_NET *32 0.00192815
*CONN
*I *170:CLK I *D sky130_fd_sc_hd__dfxtp_1
*I *171:CLK I *D sky130_fd_sc_hd__dfxtp_1
*I *174:X O *D sky130_fd_sc_hd__clkbuf_16
*CAP
1 *170:CLK 0
2 *171:CLK 0.000151949
3 *174:X 0.000639758
4 *32:12 0.000791707
5 *32:12 *186:A 8.01554e-05
6 *170:D *171:CLK 9.84729e-05
7 *170:D *32:12 0.00011316
8 *174:A *171:CLK 5.29477e-05
*RES
1 *174:X *32:12 30.5679 
2 *32:12 *171:CLK 21.4964 
3 *32:12 *170:CLK 9.3 
*END

*D_NET *33 0.00100773
*CONN
*I *155:B_N I *D sky130_fd_sc_hd__nor2b_1
*I *175:X O *D sky130_fd_sc_hd__buf_2
*CAP
1 *155:B_N 0.00033219
2 *175:X 0.00033219
3 *155:B_N *155:A 0.000141729
4 *155:B_N *43:12 0.000183311
5 *182:A *155:B_N 1.83136e-05
*RES
1 *175:X *155:B_N 33.0821 
*END

*D_NET *34 0.000277333
*CONN
*I *183:A I *D sky130_fd_sc_hd__buf_2
*I *171:Q O *D sky130_fd_sc_hd__dfxtp_1
*CAP
1 *183:A 0.000138667
2 *171:Q 0.000138667
*RES
1 *171:Q *183:A 21.1 
*END

*D_NET *35 0.000397611
*CONN
*I *184:A I *D sky130_fd_sc_hd__buf_2
*I *169:Q O *D sky130_fd_sc_hd__dfxtp_1
*CAP
1 *184:A 0.000198805
2 *169:Q 0.000198805
3 *172:A *184:A 0
*RES
1 *169:Q *184:A 30.9036 
*END

*D_NET *36 0.000271101
*CONN
*I *185:A I *D sky130_fd_sc_hd__buf_2
*I *168:Q O *D sky130_fd_sc_hd__dfxtp_1
*CAP
1 *185:A 0.000131296
2 *168:Q 0.000131296
3 eoc *185:A 8.50795e-06
*RES
1 *168:Q *185:A 29.7786 
*END

*D_NET *37 0.00215302
*CONN
*I *159:A I *D sky130_fd_sc_hd__xnor2_1
*I *156:A I *D sky130_fd_sc_hd__nand4_1
*I *164:A I *D sky130_fd_sc_hd__nand3_1
*I *176:X O *D sky130_fd_sc_hd__buf_2
*CAP
1 *159:A 0.000166161
2 *156:A 0
3 *164:A 6.84874e-05
4 *176:X 0.000165708
5 *37:16 0.000434252
6 *37:10 0.000697635
7 *156:D *164:A 1.02301e-05
8 *161:A *37:16 9.83442e-05
9 *161:B *159:A 7.57394e-05
10 *161:C *164:A 0.000240408
11 *161:C *37:16 5.49995e-05
12 *162:B1 *37:16 2.85234e-05
13 *164:B *164:A 3.11088e-05
14 *20:20 *164:A 3.90632e-05
15 *20:20 *37:16 1.38323e-05
16 *21:10 *164:A 2.85234e-05
*RES
1 *176:X *37:10 16.2821 
2 *37:10 *37:16 10.875 
3 *37:16 *164:A 11.9071 
4 *37:16 *156:A 9.3 
5 *37:10 *159:A 16.8 
*END

*D_NET *38 0.00095497
*CONN
*I *159:B I *D sky130_fd_sc_hd__xnor2_1
*I *156:B I *D sky130_fd_sc_hd__nand4_1
*I *177:X O *D sky130_fd_sc_hd__buf_2
*CAP
1 *159:B 0
2 *156:B 0.000249776
3 *177:X 9.54515e-05
4 *38:8 0.000345228
5 *161:B *156:B 7.74135e-05
6 *20:20 *156:B 0.0001871
*RES
1 *177:X *38:8 15.4429 
2 *38:8 *156:B 18.175 
3 *38:8 *159:B 13.8 
*END

*D_NET *39 0.00241947
*CONN
*I *156:C I *D sky130_fd_sc_hd__nand4_1
*I *160:A I *D sky130_fd_sc_hd__nor4_1
*I *178:X O *D sky130_fd_sc_hd__buf_2
*CAP
1 *156:C 0.000430685
2 *160:A 0.000295948
3 *178:X 0.000283816
4 *39:6 0.00101045
5 *160:A *41:19 1.03904e-05
6 *160:A *42:18 0.000172877
7 *161:C *156:C 2.11048e-05
8 *164:B *156:C 0.000100165
9 *180:A *160:A 0
10 *181:A *39:6 3.73361e-05
11 *20:20 *156:C 5.66971e-05
*RES
1 *178:X *39:6 12.7107 
2 *39:6 *160:A 23.8893 
3 *39:6 *156:C 14.7643 
*END

*D_NET *40 0.00205735
*CONN
*I *160:D I *D sky130_fd_sc_hd__nor4_1
*I *158:A I *D sky130_fd_sc_hd__nand2_1
*I *163:B I *D sky130_fd_sc_hd__nand2_1
*I *179:X O *D sky130_fd_sc_hd__buf_2
*CAP
1 *160:D 0
2 *158:A 0.000200897
3 *163:B 0.000177766
4 *179:X 0.000373844
5 *40:14 0.000378663
6 *40:12 0.000373844
7 *158:A *41:19 6.01956e-05
8 *163:B *163:A 0.000131939
9 *163:B *41:19 3.84632e-05
10 *40:12 *166:A1 7.22686e-05
11 *158:B *158:A 6.01916e-05
12 *162:A2 *158:A 2.85234e-05
13 *167:B_N *163:B 4.64762e-05
14 *179:A *40:12 9.60337e-06
15 *180:A *40:12 4.96722e-05
16 *25:10 *40:12 5.49995e-05
*RES
1 *179:X *40:12 24.6929 
2 *40:12 *40:14 4.5 
3 *40:14 *163:B 17.4964 
4 *40:14 *158:A 17.6393 
5 *40:12 *160:D 9.3 
*END

*D_NET *41 0.00191152
*CONN
*I *166:A2 I *D sky130_fd_sc_hd__o21ai_0
*I *160:C I *D sky130_fd_sc_hd__nor4_1
*I *163:A I *D sky130_fd_sc_hd__nand2_1
*I *157:B I *D sky130_fd_sc_hd__xnor2_1
*I *180:X O *D sky130_fd_sc_hd__buf_2
*CAP
1 *166:A2 0.000108213
2 *160:C 0
3 *163:A 0.000177908
4 *157:B 0
5 *180:X 0.000114113
6 *41:34 0.000108213
7 *41:19 0.000354805
8 *41:8 0.000291011
9 *166:A2 *166:A1 0.000139344
10 *41:8 *42:12 9.14454e-05
11 *41:19 *42:12 5.33005e-05
12 *41:19 *42:18 0.000172877
13 *158:A *41:19 6.01956e-05
14 *160:A *41:19 1.03904e-05
15 *163:B *163:A 0.000131939
16 *163:B *41:19 3.84632e-05
17 *165:A2 *166:A2 1.87331e-05
18 *25:10 *166:A2 1.16543e-05
19 *27:12 *163:A 2.89114e-05
*RES
1 *180:X *41:8 11.4964 
2 *41:8 *157:B 9.3 
3 *41:8 *41:19 8.60714 
4 *41:19 *163:A 17.5321 
5 *41:19 *41:34 4.5 
6 *41:34 *160:C 9.3 
7 *41:34 *166:A2 11.4964 
*END

*D_NET *42 0.00142496
*CONN
*I *157:A I *D sky130_fd_sc_hd__xnor2_1
*I *160:B I *D sky130_fd_sc_hd__nor4_1
*I *166:A1 I *D sky130_fd_sc_hd__o21ai_0
*I *181:X O *D sky130_fd_sc_hd__buf_2
*CAP
1 *157:A 0
2 *160:B 0
3 *166:A1 7.81708e-05
4 *181:X 0.00021623
5 *42:18 0.000135019
6 *42:12 0.000273079
7 *160:A *42:18 0.000172877
8 *166:A2 *166:A1 0.000139344
9 *180:A *42:12 5.54817e-06
10 *25:10 *166:A1 1.4796e-05
11 *40:12 *166:A1 7.22686e-05
12 *41:8 *42:12 9.14454e-05
13 *41:19 *42:12 5.33005e-05
14 *41:19 *42:18 0.000172877
*RES
1 *181:X *42:12 22.425 
2 *42:12 *42:18 11.25 
3 *42:18 *166:A1 11.4964 
4 *42:18 *160:B 9.3 
5 *42:12 *157:A 9.3 
*END

*D_NET *43 0.0014455
*CONN
*I *154:A I *D sky130_fd_sc_hd__inv_1
*I *155:A I *D sky130_fd_sc_hd__nor2b_1
*I *182:X O *D sky130_fd_sc_hd__buf_2
*CAP
1 *154:A 0.000252854
2 *155:A 0.000169591
3 *182:X 0.000137787
4 *43:12 0.000560232
5 *155:B_N *155:A 0.000141729
6 *155:B_N *43:12 0.000183311
*RES
1 *182:X *43:12 21.1929 
2 *43:12 *155:A 12.3179 
3 *43:12 *154:A 13.7063 
*END

*D_NET *44 0.000363327
*CONN
*I *186:A I *D sky130_fd_sc_hd__buf_2
*I *170:Q O *D sky130_fd_sc_hd__dfxtp_1
*CAP
1 *186:A 0.000141586
2 *170:Q 0.000141586
3 *32:12 *186:A 8.01554e-05
*RES
1 *170:Q *186:A 30.4929 
*END
