*SPEF "ieee 1481-1999"
*DESIGN "Encoder"
*DATE "19:34:05 Friday August 28, 2026"
*VENDOR "The OpenROAD Project"
*PROGRAM "OpenROAD"
*VERSION "26Q1-1024-gdcf36133a"
*DESIGN_FLOW "NAME_SCOPE LOCAL" "PIN_CAP NONE"
*DIVIDER /
*DELIMITER :
*BUS_DELIMITER []
*T_UNIT 1 NS
*C_UNIT 1 PF
*R_UNIT 1 OHM
*L_UNIT 1 HENRY

*NAME_MAP
*1 Comp[0]
*2 Comp[1]
*3 Comp[2]
*4 Comp[3]
*5 Comp[4]
*6 Comp[5]
*7 Comp[6]
*8 Dout[0]
*9 Dout[1]
*10 Dout[2]
*11 Samp
*12 clk
*13 eoc
*16 _00_
*17 _01_
*18 _02_
*19 _03_
*20 _04_
*21 _05_
*22 _06_
*23 _07_
*24 _08_
*25 _09_
*26 _10_
*27 _11_
*28 _12_
*29 _13_
*30 clknet_0_clk
*31 clknet_1_0__leaf_clk
*32 clknet_1_1__leaf_clk
*33 net1
*34 net10
*35 net11
*36 net12
*37 net2
*38 net3
*39 net4
*40 net5
*41 net6
*42 net7
*43 net8
*44 net9
*45 FILLER_0_15
*46 FILLER_0_27
*47 FILLER_0_29
*48 FILLER_0_3
*49 FILLER_0_39
*50 FILLER_0_51
*51 FILLER_0_55
*52 FILLER_0_57
*53 FILLER_1_15
*54 FILLER_1_27
*55 FILLER_1_3
*56 FILLER_1_36
*57 FILLER_1_51
*58 FILLER_1_55
*59 FILLER_1_57
*60 FILLER_1_77
*61 FILLER_2_15
*62 FILLER_2_27
*63 FILLER_2_29
*64 FILLER_2_3
*65 FILLER_2_41
*66 FILLER_2_53
*67 FILLER_2_75
*68 FILLER_3_15
*69 FILLER_3_27
*70 FILLER_3_3
*71 FILLER_3_39
*72 FILLER_3_51
*73 FILLER_3_55
*74 FILLER_3_57
*75 FILLER_3_69
*76 FILLER_4_15
*77 FILLER_4_19
*78 FILLER_4_27
*79 FILLER_4_3
*80 FILLER_4_34
*81 FILLER_4_46
*82 FILLER_4_58
*83 FILLER_4_80
*84 FILLER_5_11
*85 FILLER_5_22
*86 FILLER_5_3
*87 FILLER_5_32
*88 FILLER_5_44
*89 FILLER_5_57
*90 FILLER_5_74
*91 FILLER_6_11
*92 FILLER_6_22
*93 FILLER_6_33
*94 FILLER_6_45
*95 FILLER_6_57
*96 FILLER_6_76
*97 FILLER_6_80
*98 FILLER_7_11
*99 FILLER_7_19
*100 FILLER_7_34
*101 FILLER_7_46
*102 FILLER_7_54
*103 FILLER_7_57
*104 FILLER_7_69
*105 FILLER_8_15
*106 FILLER_8_27
*107 FILLER_8_3
*108 FILLER_8_36
*109 FILLER_8_48
*110 FILLER_8_60
*111 FILLER_8_72
*112 FILLER_8_80
*113 FILLER_9_15
*114 FILLER_9_27
*115 FILLER_9_29
*116 FILLER_9_3
*117 FILLER_9_39
*118 FILLER_9_51
*119 FILLER_9_55
*120 FILLER_9_57
*121 FILLER_9_79
*122 PHY_EDGE_ROW_0_Left_10
*123 PHY_EDGE_ROW_0_Right_0
*124 PHY_EDGE_ROW_1_Left_11
*125 PHY_EDGE_ROW_1_Right_1
*126 PHY_EDGE_ROW_2_Left_12
*127 PHY_EDGE_ROW_2_Right_2
*128 PHY_EDGE_ROW_3_Left_13
*129 PHY_EDGE_ROW_3_Right_3
*130 PHY_EDGE_ROW_4_Left_14
*131 PHY_EDGE_ROW_4_Right_4
*132 PHY_EDGE_ROW_5_Left_15
*133 PHY_EDGE_ROW_5_Right_5
*134 PHY_EDGE_ROW_6_Left_16
*135 PHY_EDGE_ROW_6_Right_6
*136 PHY_EDGE_ROW_7_Left_17
*137 PHY_EDGE_ROW_7_Right_7
*138 PHY_EDGE_ROW_8_Left_18
*139 PHY_EDGE_ROW_8_Right_8
*140 PHY_EDGE_ROW_9_Left_19
*141 PHY_EDGE_ROW_9_Right_9
*142 TAP_TAPCELL_ROW_0_20
*143 TAP_TAPCELL_ROW_0_21
*144 TAP_TAPCELL_ROW_1_22
*145 TAP_TAPCELL_ROW_2_23
*146 TAP_TAPCELL_ROW_3_24
*147 TAP_TAPCELL_ROW_4_25
*148 TAP_TAPCELL_ROW_5_26
*149 TAP_TAPCELL_ROW_6_27
*150 TAP_TAPCELL_ROW_7_28
*151 TAP_TAPCELL_ROW_8_29
*152 TAP_TAPCELL_ROW_9_30
*153 TAP_TAPCELL_ROW_9_31
*154 _14_
*155 _15_
*156 _16_
*157 _17_
*158 _18_
*159 _19_
*160 _20_
*161 _21_
*162 _22_
*163 _23_
*164 _24_
*165 _25_
*166 _26_
*167 _27_
*168 _28_
*169 _29_
*170 _30_
*171 _31_
*172 clkbuf_0_clk
*173 clkbuf_1_0__f_clk
*174 clkbuf_1_1__f_clk
*175 input1
*176 input2
*177 input3
*178 input4
*179 input5
*180 input6
*181 input7
*182 input8
*183 output10
*184 output11
*185 output12
*186 output9

*PORTS
Comp[0] I
Comp[1] I
Comp[2] I
Comp[3] I
Comp[4] I
Comp[5] I
Comp[6] I
Dout[0] O
Dout[1] O
Dout[2] O
Samp I
clk I
eoc O

*D_NET *1 0.00122833
*CONN
*P Comp[0] I
*I *175:A I *D sky130_fd_sc_hd__buf_2
*CAP
1 Comp[0] 0.000614167
2 *175:A 0
3 *1:9 0.000614167
4 *1:9 *11:9 0
*RES
1 Comp[0] *1:9 28.05 
2 *1:9 *175:A 23 
*END

*D_NET *2 0.00140651
*CONN
*P Comp[1] I
*I *176:A I *D sky130_fd_sc_hd__buf_2
*CAP
1 Comp[1] 0.00047059
2 *176:A 0
3 *2:11 0.00047059
4 *2:11 *3:9 0.000465328
*RES
1 Comp[1] *2:11 29.2721 
2 *2:11 *176:A 23 
*END

*D_NET *3 0.00149516
*CONN
*P Comp[2] I
*I *177:A I *D sky130_fd_sc_hd__buf_2
*CAP
1 Comp[2] 0.000514918
2 *177:A 0
3 *3:9 0.000514918
4 *2:11 *3:9 0.000465328
*RES
1 Comp[2] *3:9 29.6036 
2 *3:9 *177:A 23 
*END

*D_NET *4 0.00114084
*CONN
*P Comp[3] I
*I *178:A I *D sky130_fd_sc_hd__buf_2
*CAP
1 Comp[3] 0.000327845
2 *178:A 0
3 *4:13 0.000327845
4 *4:13 *7:15 0.000485154
*RES
1 Comp[3] *4:13 28.5594 
2 *4:13 *178:A 23 
*END

*D_NET *5 0.00109205
*CONN
*P Comp[4] I
*I *179:A I *D sky130_fd_sc_hd__buf_2
*CAP
1 Comp[4] 0.00022264
2 *179:A 0.00022264
3 *179:A *6:11 0.000374982
4 *179:A *7:15 0.000261921
5 *179:A *40:8 9.86551e-06
*RES
1 Comp[4] *179:A 48.3283 
*END

*D_NET *6 0.00131536
*CONN
*P Comp[5] I
*I *180:A I *D sky130_fd_sc_hd__buf_2
*CAP
1 Comp[5] 0.000441752
2 *180:A 0
3 *6:11 0.000441752
4 *6:11 *39:12 0
5 *6:11 *40:8 5.11217e-05
6 *6:11 *42:8 5.75756e-06
7 *179:A *6:11 0.000374982
*RES
1 Comp[5] *6:11 27.0803 
2 *6:11 *180:A 23 
*END

*D_NET *7 0.00159193
*CONN
*P Comp[6] I
*I *181:A I *D sky130_fd_sc_hd__buf_2
*CAP
1 Comp[6] 0.00040383
2 *181:A 0
3 *7:15 0.00040383
4 *7:15 *39:6 3.71887e-05
5 *179:A *7:15 0.000261921
6 *4:13 *7:15 0.000485154
*RES
1 Comp[6] *7:15 31.2375 
2 *7:15 *181:A 23 
*END

*D_NET *8 0.000874561
*CONN
*P Dout[0] O
*I *186:X O *D sky130_fd_sc_hd__buf_2
*CAP
1 Dout[0] 0.000437281
2 *186:X 0.000437281
3 Dout[0] Dout[1] 0
*RES
1 *186:X Dout[0] 47.7696 
*END

*D_NET *9 0.00088409
*CONN
*P Dout[1] O
*I *183:X O *D sky130_fd_sc_hd__buf_2
*CAP
1 Dout[1] 0.000442045
2 *183:X 0.000442045
3 Dout[1] *12:12 0
4 Dout[0] Dout[1] 0
*RES
1 *183:X Dout[1] 47.7696 
*END

*D_NET *10 0.00118455
*CONN
*P Dout[2] O
*I *184:X O *D sky130_fd_sc_hd__buf_2
*CAP
1 Dout[2] 2.1708e-05
2 *184:X 0.000496333
3 *10:10 0.000518041
4 Dout[2] eoc 7.42348e-05
5 Dout[2] *12:12 7.42348e-05
*RES
1 *184:X *10:10 46.5446 
2 *10:10 Dout[2] 8.2464 
*END

*D_NET *11 0.00123285
*CONN
*P Samp I
*I *182:A I *D sky130_fd_sc_hd__buf_2
*CAP
1 Samp 0.000607253
2 *182:A 0
3 *11:9 0.000607253
4 *11:9 *33:10 1.83408e-05
5 *1:9 *11:9 0
*RES
1 Samp *11:9 28.05 
2 *11:9 *182:A 23 
*END

*D_NET *12 0.00148831
*CONN
*P clk I
*I *172:A I *D sky130_fd_sc_hd__clkbuf_16
*CAP
1 clk 0.000617158
2 *172:A 0
3 *12:12 0.000617158
4 *12:12 eoc 0.000179757
5 *12:12 *35:8 0
6 Dout[1] *12:12 0
7 Dout[2] *12:12 7.42348e-05
*RES
1 clk *12:12 27.9389 
2 *12:12 *172:A 23 
*END

*D_NET *13 0.00089918
*CONN
*P eoc O
*I *185:X O *D sky130_fd_sc_hd__buf_2
*CAP
1 eoc 0.000318284
2 *185:X 0.000318284
3 eoc *36:8 8.62073e-06
4 Dout[2] eoc 7.42348e-05
5 *12:12 eoc 0.000179757
*RES
1 *185:X eoc 47.7696 
*END

*D_NET *16 0.000870162
*CONN
*I *168:D I *D sky130_fd_sc_hd__dfxtp_1
*I *154:Y O *D sky130_fd_sc_hd__inv_1
*CAP
1 *168:D 0
2 *154:Y 0.000418435
3 *16:6 0.000418435
4 *16:6 *168:CLK 2.38288e-05
5 *16:6 *31:12 9.4636e-06
*RES
1 *154:Y *16:6 29.8927 
2 *16:6 *168:D 23 
*END

*D_NET *17 0.00194991
*CONN
*I *170:D I *D sky130_fd_sc_hd__dfxtp_1
*I *162:Y O *D sky130_fd_sc_hd__o21ai_0
*CAP
1 *170:D 0
2 *162:Y 0.000867119
3 *17:6 0.000867119
4 *17:6 *32:12 0.000115183
5 *17:6 *32:20 0.000100486
*RES
1 *162:Y *17:6 37.7537 
2 *17:6 *170:D 23 
*END

*D_NET *18 0.00203652
*CONN
*I *171:D I *D sky130_fd_sc_hd__dfxtp_1
*I *165:Y O *D sky130_fd_sc_hd__o21ai_0
*CAP
1 *171:D 0
2 *165:Y 0.000961753
3 *18:6 0.000961753
4 *18:6 *165:A2 1.12268e-05
5 *18:6 *165:B1 7.61229e-06
6 *18:6 *21:16 9.41704e-05
*RES
1 *165:Y *18:6 38.7066 
2 *18:6 *171:D 23 
*END

*D_NET *19 0.00239543
*CONN
*I *169:D I *D sky130_fd_sc_hd__dfxtp_1
*I *167:Y O *D sky130_fd_sc_hd__nor2b_1
*CAP
1 *169:D 0
2 *167:Y 0.000715859
3 *19:14 0.00034346
4 *19:6 0.00105932
5 *19:14 *173:A 0.000150385
6 *19:14 *31:31 0.000126403
*RES
1 *167:Y *19:6 35.0557 
2 *19:6 *19:14 37.6695 
3 *19:14 *169:D 23 
*END

*D_NET *20 0.00346929
*CONN
*I *161:A I *D sky130_fd_sc_hd__nand3_1
*I *156:D I *D sky130_fd_sc_hd__nand4_1
*I *164:B I *D sky130_fd_sc_hd__nand3_1
*I *155:Y O *D sky130_fd_sc_hd__nor2b_1
*CAP
1 *161:A 4.16421e-05
2 *156:D 1.42016e-05
3 *164:B 1.66192e-05
4 *155:Y 4.01848e-05
5 *20:20 0.000106574
6 *20:16 0.000967279
7 *20:8 0.000890069
8 *156:D *164:A 1.12796e-05
9 *161:A *37:16 0.000100069
10 *164:B *156:C 0.000102971
11 *164:B *164:A 3.26241e-05
12 *164:B *25:20 1.61385e-05
13 *20:16 *21:10 0.000165384
14 *20:16 *21:16 0.000193034
15 *20:16 *21:22 0.000248572
16 *20:16 *25:20 5.20619e-06
17 *20:16 *26:10 6.67651e-05
18 *20:16 *29:8 0
19 *20:20 *156:B 0.000192342
20 *20:20 *156:C 5.82853e-05
21 *20:20 *161:C 0.000145171
22 *20:20 *164:A 4.07675e-05
23 *20:20 *37:16 1.41129e-05
*RES
1 *155:Y *20:8 38.6214 
2 *20:8 *20:16 32.4621 
3 *20:16 *20:20 3.50071 
4 *20:20 *164:B 24.0979 
5 *20:20 *156:D 23.4971 
6 *20:16 *161:A 24.0979 
*END

*D_NET *21 0.00156857
*CONN
*I *162:A1 I *D sky130_fd_sc_hd__o21ai_0
*I *165:A1 I *D sky130_fd_sc_hd__o21ai_0
*I *167:A I *D sky130_fd_sc_hd__nor2b_1
*I *156:Y O *D sky130_fd_sc_hd__nand4_1
*CAP
1 *162:A1 0
2 *165:A1 0
3 *167:A 0
4 *156:Y 0.000136193
5 *21:22 0.000120285
6 *21:16 0.000267968
7 *21:10 0.000283875
8 *21:10 *164:A 2.95423e-05
9 *21:16 *165:A2 2.95423e-05
10 *18:6 *21:16 9.41704e-05
11 *20:16 *21:10 0.000165384
12 *20:16 *21:16 0.000193034
13 *20:16 *21:22 0.000248572
*RES
1 *156:Y *21:10 40.8793 
2 *21:10 *21:16 18.7079 
3 *21:16 *21:22 33.3143 
4 *21:22 *167:A 23 
5 *21:16 *165:A1 23 
6 *21:10 *162:A1 38 
*END

*D_NET *22 0.00017049
*CONN
*I *158:B I *D sky130_fd_sc_hd__nand2_1
*I *157:Y O *D sky130_fd_sc_hd__xnor2_1
*CAP
1 *158:B 5.44605e-05
2 *157:Y 5.44605e-05
3 *158:B *158:A 6.15689e-05
*RES
1 *157:Y *158:B 47.4707 
*END

*D_NET *23 0.000626327
*CONN
*I *162:A2 I *D sky130_fd_sc_hd__o21ai_0
*I *158:Y O *D sky130_fd_sc_hd__nand2_1
*CAP
1 *162:A2 0
2 *158:Y 0.000298392
3 *23:6 0.000298392
4 *23:6 *158:A 2.95423e-05
*RES
1 *158:Y *23:6 27.9093 
2 *23:6 *162:A2 23 
*END

*D_NET *24 0.000533824
*CONN
*I *161:B I *D sky130_fd_sc_hd__nand3_1
*I *159:Y O *D sky130_fd_sc_hd__xnor2_1
*CAP
1 *161:B 0
2 *159:Y 0.000184671
3 *24:10 0.000184671
4 *24:10 *156:B 8.57577e-05
5 *24:10 *159:A 7.87243e-05
*RES
1 *159:Y *24:10 41.1279 
2 *24:10 *161:B 38 
*END

*D_NET *25 0.00203799
*CONN
*I *164:C I *D sky130_fd_sc_hd__nand3_1
*I *161:C I *D sky130_fd_sc_hd__nand3_1
*I *160:Y O *D sky130_fd_sc_hd__nor4_1
*CAP
1 *164:C 2.51817e-05
2 *161:C 3.08109e-05
3 *160:Y 0.000444232
4 *25:20 0.000224436
5 *25:10 0.000663039
6 *161:C *164:A 0.000100486
7 *161:C *37:16 5.5792e-05
8 *25:10 *165:A2 2.45549e-06
9 *25:10 *166:A1 1.47795e-05
10 *25:10 *166:A2 1.09834e-05
11 *25:10 *28:8 7.82469e-05
12 *25:10 *40:12 5.5792e-05
13 *25:20 *156:C 2.00768e-05
14 *25:20 *164:A 0.000145163
15 *164:B *25:20 1.61385e-05
16 *20:16 *25:20 5.20619e-06
17 *20:20 *161:C 0.000145171
*RES
1 *160:Y *25:10 44.8979 
2 *25:10 *25:20 48.8529 
3 *25:20 *161:C 24.5743 
4 *25:10 *164:C 38.8493 
*END

*D_NET *26 0.000365715
*CONN
*I *162:B1 I *D sky130_fd_sc_hd__o21ai_0
*I *161:Y O *D sky130_fd_sc_hd__nand3_1
*CAP
1 *162:B1 0
2 *161:Y 0.000134704
3 *26:10 0.000134704
4 *26:10 *37:16 2.95423e-05
5 *20:16 *26:10 6.67651e-05
*RES
1 *161:Y *26:10 40.5271 
2 *26:10 *162:B1 38 
*END

*D_NET *27 0.00146742
*CONN
*I *166:B1 I *D sky130_fd_sc_hd__o21ai_0
*I *165:A2 I *D sky130_fd_sc_hd__o21ai_0
*I *163:Y O *D sky130_fd_sc_hd__nand2_1
*CAP
1 *166:B1 0
2 *165:A2 0.000261809
3 *163:Y 0.000275525
4 *27:12 0.000261809
5 *27:10 0.000275525
6 *165:A2 *165:B1 0.000192342
7 *165:A2 *166:A2 1.9054e-05
8 *27:10 *163:A 2.93845e-05
9 *27:10 *167:B_N 1.94812e-05
10 *27:10 *28:8 3.50862e-06
11 *27:10 *29:8 8.57577e-05
12 *18:6 *165:A2 1.12268e-05
13 *21:16 *165:A2 2.95423e-05
14 *25:10 *165:A2 2.45549e-06
*RES
1 *163:Y *27:10 41.9564 
2 *27:10 *27:12 15 
3 *27:12 *165:A2 28.4271 
4 *27:12 *166:B1 23 
*END

*D_NET *28 0.000916615
*CONN
*I *165:B1 I *D sky130_fd_sc_hd__o21ai_0
*I *164:Y O *D sky130_fd_sc_hd__nand3_1
*CAP
1 *165:B1 6.36843e-05
2 *164:Y 0.000253768
3 *28:8 0.000317453
4 *165:A2 *165:B1 0.000192342
5 *18:6 *165:B1 7.61229e-06
6 *25:10 *28:8 7.82469e-05
7 *27:10 *28:8 3.50862e-06
*RES
1 *164:Y *28:8 43.075 
2 *28:8 *165:B1 40.0507 
*END

*D_NET *29 0.000821814
*CONN
*I *167:B_N I *D sky130_fd_sc_hd__nor2b_1
*I *166:Y O *D sky130_fd_sc_hd__o21ai_0
*CAP
1 *167:B_N 0.000235118
2 *166:Y 0.000100752
3 *29:8 0.000335869
4 *29:8 *163:B 4.48367e-05
5 *20:16 *29:8 0
6 *27:10 *167:B_N 1.94812e-05
7 *27:10 *29:8 8.57577e-05
*RES
1 *166:Y *29:8 40.2579 
2 *29:8 *167:B_N 42.4329 
*END

*D_NET *30 0.00302964
*CONN
*I *174:A I *D sky130_fd_sc_hd__clkbuf_16
*I *173:A I *D sky130_fd_sc_hd__clkbuf_16
*I *172:X O *D sky130_fd_sc_hd__clkbuf_16
*CAP
1 *174:A 0
2 *173:A 0.000576195
3 *172:X 0
4 *30:23 0.000774492
5 *30:7 0.00135069
6 *173:A *31:31 0.000128062
7 *30:23 *32:20 4.98186e-05
8 *19:14 *173:A 0.000150385
*RES
1 *172:X *30:7 38 
2 *30:7 *173:A 49.7657 
3 *30:7 *30:23 30.3286 
4 *30:23 *174:A 23 
*END

*D_NET *31 0.00210908
*CONN
*I *169:CLK I *D sky130_fd_sc_hd__dfxtp_1
*I *168:CLK I *D sky130_fd_sc_hd__dfxtp_1
*I *173:X O *D sky130_fd_sc_hd__clkbuf_16
*CAP
1 *169:CLK 0
2 *168:CLK 0.000124674
3 *173:X 7.99831e-05
4 *31:31 0.000266795
5 *31:12 0.000830678
6 *31:8 0.000519193
7 *173:A *31:31 0.000128062
8 *16:6 *168:CLK 2.38288e-05
9 *16:6 *31:12 9.4636e-06
10 *19:14 *31:31 0.000126403
*RES
1 *173:X *31:8 39.2014 
2 *31:8 *31:12 20.8621 
3 *31:12 *168:CLK 24.9471 
4 *31:12 *31:31 35.8621 
5 *31:31 *169:CLK 23 
*END

*D_NET *32 0.0020828
*CONN
*I *170:CLK I *D sky130_fd_sc_hd__dfxtp_1
*I *171:CLK I *D sky130_fd_sc_hd__dfxtp_1
*I *174:X O *D sky130_fd_sc_hd__clkbuf_16
*CAP
1 *170:CLK 0
2 *171:CLK 0
3 *174:X 0.000374765
4 *32:20 0.000177796
5 *32:12 0.000492352
6 *32:8 0.000689321
7 *32:8 *44:8 8.30753e-05
8 *17:6 *32:12 0.000115183
9 *17:6 *32:20 0.000100486
10 *30:23 *32:20 4.98186e-05
*RES
1 *174:X *32:8 45.8921 
2 *32:8 *32:12 21.3386 
3 *32:12 *32:20 33.7079 
4 *32:20 *171:CLK 23 
5 *32:12 *170:CLK 23 
*END

*D_NET *33 0.00109509
*CONN
*I *155:B_N I *D sky130_fd_sc_hd__nor2b_1
*I *175:X O *D sky130_fd_sc_hd__buf_2
*CAP
1 *155:B_N 6.30879e-05
2 *175:X 0.000304553
3 *33:10 0.000367641
4 *155:B_N *155:A 0.000144494
5 *33:10 *43:10 0.000196976
6 *11:9 *33:10 1.83408e-05
*RES
1 *175:X *33:10 42.785 
2 *33:10 *155:B_N 39.5743 
*END

*D_NET *34 0.000286602
*CONN
*I *183:A I *D sky130_fd_sc_hd__buf_2
*I *171:Q O *D sky130_fd_sc_hd__dfxtp_1
*CAP
1 *183:A 0.000143301
2 *171:Q 0.000143301
*RES
1 *171:Q *183:A 48.9 
*END

*D_NET *35 0.000439887
*CONN
*I *184:A I *D sky130_fd_sc_hd__buf_2
*I *169:Q O *D sky130_fd_sc_hd__dfxtp_1
*CAP
1 *184:A 9.37145e-05
2 *169:Q 0.000126229
3 *35:8 0.000219944
4 *12:12 *35:8 0
*RES
1 *169:Q *35:8 40.2579 
2 *35:8 *184:A 39.5743 
*END

*D_NET *36 0.000307583
*CONN
*I *185:A I *D sky130_fd_sc_hd__buf_2
*I *168:Q O *D sky130_fd_sc_hd__dfxtp_1
*CAP
1 *185:A 4.24211e-05
2 *168:Q 0.00010706
3 *36:8 0.000149481
4 eoc *36:8 8.62073e-06
*RES
1 *168:Q *36:8 39.9057 
2 *36:8 *185:A 38.6214 
*END

*D_NET *37 0.00236647
*CONN
*I *159:A I *D sky130_fd_sc_hd__xnor2_1
*I *156:A I *D sky130_fd_sc_hd__nand4_1
*I *164:A I *D sky130_fd_sc_hd__nand3_1
*I *176:X O *D sky130_fd_sc_hd__buf_2
*CAP
1 *159:A 0.000184169
2 *156:A 0
3 *164:A 7.78329e-05
4 *176:X 0.000183574
5 *37:16 0.000496443
6 *37:10 0.000786353
7 *156:D *164:A 1.12796e-05
8 *161:A *37:16 0.000100069
9 *161:C *164:A 0.000100486
10 *161:C *37:16 5.5792e-05
11 *164:B *164:A 3.26241e-05
12 *20:20 *164:A 4.07675e-05
13 *20:20 *37:16 1.41129e-05
14 *21:10 *164:A 2.95423e-05
15 *24:10 *159:A 7.87243e-05
16 *25:20 *164:A 0.000145163
17 *26:10 *37:16 2.95423e-05
*RES
1 *176:X *37:10 40.8793 
2 *37:10 *37:16 22.395 
3 *37:16 *164:A 26.0243 
4 *37:16 *156:A 23 
5 *37:10 *159:A 41.48 
*END

*D_NET *38 0.00103604
*CONN
*I *159:B I *D sky130_fd_sc_hd__xnor2_1
*I *156:B I *D sky130_fd_sc_hd__nand4_1
*I *177:X O *D sky130_fd_sc_hd__buf_2
*CAP
1 *159:B 0
2 *156:B 0.000274086
3 *177:X 0.000104884
4 *38:8 0.00037897
5 *20:20 *156:B 0.000192342
6 *24:10 *156:B 8.57577e-05
*RES
1 *177:X *38:8 39.9057 
2 *38:8 *156:B 43.075 
3 *38:8 *159:B 38 
*END

*D_NET *39 0.002605
*CONN
*I *156:C I *D sky130_fd_sc_hd__nand4_1
*I *160:A I *D sky130_fd_sc_hd__nor4_1
*I *178:X O *D sky130_fd_sc_hd__buf_2
*CAP
1 *156:C 0.000450058
2 *160:A 0
3 *178:X 0.00029907
4 *39:12 0.00034231
5 *39:6 0.00109144
6 *39:12 *41:19 1.07299e-05
7 *39:12 *42:18 0.000192871
8 *164:B *156:C 0.000102971
9 *6:11 *39:12 0
10 *7:15 *39:6 3.71887e-05
11 *20:20 *156:C 5.82853e-05
12 *25:20 *156:C 2.00768e-05
*RES
1 *178:X *39:6 26.9564 
2 *39:6 *39:12 36.4836 
3 *39:12 *160:A 23 
4 *39:6 *156:C 29.3386 
*END

*D_NET *40 0.00229201
*CONN
*I *160:D I *D sky130_fd_sc_hd__nor4_1
*I *158:A I *D sky130_fd_sc_hd__nand2_1
*I *163:B I *D sky130_fd_sc_hd__nand2_1
*I *179:X O *D sky130_fd_sc_hd__buf_2
*CAP
1 *160:D 0
2 *158:A 0.000228358
3 *163:B 0.000215721
4 *179:X 7.92558e-05
5 *40:14 0.000444079
6 *40:12 0.000340513
7 *40:8 0.000419769
8 *158:A *41:19 6.23469e-05
9 *163:B *163:A 0.000134597
10 *163:B *41:19 3.9788e-05
11 *40:12 *166:A1 7.48505e-05
12 *158:B *158:A 6.15689e-05
13 *179:A *40:8 9.86551e-06
14 *6:11 *40:8 5.11217e-05
15 *23:6 *158:A 2.95423e-05
16 *25:10 *40:12 5.5792e-05
17 *29:8 *163:B 4.48367e-05
*RES
1 *179:X *40:8 39.5536 
2 *40:8 *40:12 20.8621 
3 *40:12 *40:14 15 
4 *40:14 *163:B 42.2879 
5 *40:14 *158:A 42.4536 
6 *40:12 *160:D 23 
*END

*D_NET *41 0.00212502
*CONN
*I *166:A2 I *D sky130_fd_sc_hd__o21ai_0
*I *160:C I *D sky130_fd_sc_hd__nor4_1
*I *163:A I *D sky130_fd_sc_hd__nand2_1
*I *157:B I *D sky130_fd_sc_hd__xnor2_1
*I *180:X O *D sky130_fd_sc_hd__buf_2
*CAP
1 *166:A2 0.000122132
2 *160:C 0
3 *163:A 0.000203665
4 *157:B 0
5 *180:X 0.000126749
6 *41:34 0.000122132
7 *41:19 0.000418754
8 *41:8 0.000341838
9 *166:A2 *166:A1 0.000141355
10 *41:8 *42:12 9.53319e-05
11 *41:19 *42:12 5.3304e-05
12 *41:19 *42:18 0.000192871
13 *158:A *41:19 6.23469e-05
14 *163:B *163:A 0.000134597
15 *163:B *41:19 3.9788e-05
16 *165:A2 *166:A2 1.9054e-05
17 *25:10 *166:A2 1.09834e-05
18 *27:10 *163:A 2.93845e-05
19 *39:12 *41:19 1.07299e-05
*RES
1 *180:X *41:8 25.5479 
2 *41:8 *157:B 23 
3 *41:8 *41:19 19.7643 
4 *41:19 *163:A 42.3293 
5 *41:19 *41:34 15 
6 *41:34 *160:C 23 
7 *41:34 *166:A2 25.5479 
*END

*D_NET *42 0.00159548
*CONN
*I *157:A I *D sky130_fd_sc_hd__xnor2_1
*I *160:B I *D sky130_fd_sc_hd__nor4_1
*I *166:A1 I *D sky130_fd_sc_hd__o21ai_0
*I *181:X O *D sky130_fd_sc_hd__buf_2
*CAP
1 *157:A 0
2 *160:B 0
3 *166:A1 9.19612e-05
4 *181:X 0.000128015
5 *42:18 0.000166529
6 *42:12 0.000192203
7 *42:8 0.000245649
8 *166:A2 *166:A1 0.000141355
9 *6:11 *42:8 5.75756e-06
10 *25:10 *166:A1 1.47795e-05
11 *39:12 *42:18 0.000192871
12 *40:12 *166:A1 7.48505e-05
13 *41:8 *42:12 9.53319e-05
14 *41:19 *42:12 5.3304e-05
15 *41:19 *42:18 0.000192871
*RES
1 *181:X *42:8 40.2579 
2 *42:8 *42:12 17.5271 
3 *42:12 *42:18 32.61 
4 *42:18 *166:A1 25.5479 
5 *42:18 *160:B 23 
6 *42:12 *157:A 23 
*END

*D_NET *43 0.00158512
*CONN
*I *154:A I *D sky130_fd_sc_hd__inv_1
*I *155:A I *D sky130_fd_sc_hd__nor2b_1
*I *182:X O *D sky130_fd_sc_hd__buf_2
*CAP
1 *154:A 0.000265199
2 *155:A 0.000197262
3 *182:X 0.000159364
4 *43:12 0.000462461
5 *43:10 0.000159364
6 *155:B_N *155:A 0.000144494
7 *33:10 *43:10 0.000196976
*RES
1 *182:X *43:10 41.3557 
2 *43:10 *43:12 15 
3 *43:12 *155:A 26.5007 
4 *43:12 *154:A 28.1112 
*END

*D_NET *44 0.000400011
*CONN
*I *186:A I *D sky130_fd_sc_hd__buf_2
*I *170:Q O *D sky130_fd_sc_hd__dfxtp_1
*CAP
1 *186:A 6.63506e-05
2 *170:Q 9.21174e-05
3 *44:8 0.000158468
4 *32:8 *44:8 8.30753e-05
*RES
1 *170:Q *44:8 40.2579 
2 *44:8 *186:A 39.0979 
*END
