*SPEF "ieee 1481-1999"
*DESIGN "Encoder"
*DATE "19:34:05 Friday August 28, 2026"
*VENDOR "The OpenROAD Project"
*PROGRAM "OpenROAD"
*VERSION "26Q1-1024-gdcf36133a"
*DESIGN_FLOW "NAME_SCOPE LOCAL" "PIN_CAP NONE"
*DIVIDER /
*DELIMITER :
*BUS_DELIMITER []
*T_UNIT 1 NS
*C_UNIT 1 PF
*R_UNIT 1 OHM
*L_UNIT 1 HENRY

*NAME_MAP
*1 Comp[0]
*2 Comp[1]
*3 Comp[2]
*4 Comp[3]
*5 Comp[4]
*6 Comp[5]
*7 Comp[6]
*8 Dout[0]
*9 Dout[1]
*10 Dout[2]
*11 Samp
*12 clk
*13 eoc
*16 _00_
*17 _01_
*18 _02_
*19 _03_
*20 _04_
*21 _05_
*22 _06_
*23 _07_
*24 _08_
*25 _09_
*26 _10_
*27 _11_
*28 _12_
*29 _13_
*30 clknet_0_clk
*31 clknet_1_0__leaf_clk
*32 clknet_1_1__leaf_clk
*33 net1
*34 net10
*35 net11
*36 net12
*37 net2
*38 net3
*39 net4
*40 net5
*41 net6
*42 net7
*43 net8
*44 net9
*45 FILLER_0_15
*46 FILLER_0_27
*47 FILLER_0_29
*48 FILLER_0_3
*49 FILLER_0_39
*50 FILLER_0_51
*51 FILLER_0_55
*52 FILLER_0_57
*53 FILLER_1_15
*54 FILLER_1_27
*55 FILLER_1_3
*56 FILLER_1_36
*57 FILLER_1_51
*58 FILLER_1_55
*59 FILLER_1_57
*60 FILLER_1_77
*61 FILLER_2_15
*62 FILLER_2_27
*63 FILLER_2_29
*64 FILLER_2_3
*65 FILLER_2_41
*66 FILLER_2_53
*67 FILLER_2_75
*68 FILLER_3_15
*69 FILLER_3_27
*70 FILLER_3_3
*71 FILLER_3_39
*72 FILLER_3_51
*73 FILLER_3_55
*74 FILLER_3_57
*75 FILLER_3_69
*76 FILLER_4_15
*77 FILLER_4_19
*78 FILLER_4_27
*79 FILLER_4_3
*80 FILLER_4_34
*81 FILLER_4_46
*82 FILLER_4_58
*83 FILLER_4_80
*84 FILLER_5_11
*85 FILLER_5_22
*86 FILLER_5_3
*87 FILLER_5_32
*88 FILLER_5_44
*89 FILLER_5_57
*90 FILLER_5_74
*91 FILLER_6_11
*92 FILLER_6_22
*93 FILLER_6_33
*94 FILLER_6_45
*95 FILLER_6_57
*96 FILLER_6_76
*97 FILLER_6_80
*98 FILLER_7_11
*99 FILLER_7_19
*100 FILLER_7_34
*101 FILLER_7_46
*102 FILLER_7_54
*103 FILLER_7_57
*104 FILLER_7_69
*105 FILLER_8_15
*106 FILLER_8_27
*107 FILLER_8_3
*108 FILLER_8_36
*109 FILLER_8_48
*110 FILLER_8_60
*111 FILLER_8_72
*112 FILLER_8_80
*113 FILLER_9_15
*114 FILLER_9_27
*115 FILLER_9_29
*116 FILLER_9_3
*117 FILLER_9_39
*118 FILLER_9_51
*119 FILLER_9_55
*120 FILLER_9_57
*121 FILLER_9_79
*122 PHY_EDGE_ROW_0_Left_10
*123 PHY_EDGE_ROW_0_Right_0
*124 PHY_EDGE_ROW_1_Left_11
*125 PHY_EDGE_ROW_1_Right_1
*126 PHY_EDGE_ROW_2_Left_12
*127 PHY_EDGE_ROW_2_Right_2
*128 PHY_EDGE_ROW_3_Left_13
*129 PHY_EDGE_ROW_3_Right_3
*130 PHY_EDGE_ROW_4_Left_14
*131 PHY_EDGE_ROW_4_Right_4
*132 PHY_EDGE_ROW_5_Left_15
*133 PHY_EDGE_ROW_5_Right_5
*134 PHY_EDGE_ROW_6_Left_16
*135 PHY_EDGE_ROW_6_Right_6
*136 PHY_EDGE_ROW_7_Left_17
*137 PHY_EDGE_ROW_7_Right_7
*138 PHY_EDGE_ROW_8_Left_18
*139 PHY_EDGE_ROW_8_Right_8
*140 PHY_EDGE_ROW_9_Left_19
*141 PHY_EDGE_ROW_9_Right_9
*142 TAP_TAPCELL_ROW_0_20
*143 TAP_TAPCELL_ROW_0_21
*144 TAP_TAPCELL_ROW_1_22
*145 TAP_TAPCELL_ROW_2_23
*146 TAP_TAPCELL_ROW_3_24
*147 TAP_TAPCELL_ROW_4_25
*148 TAP_TAPCELL_ROW_5_26
*149 TAP_TAPCELL_ROW_6_27
*150 TAP_TAPCELL_ROW_7_28
*151 TAP_TAPCELL_ROW_8_29
*152 TAP_TAPCELL_ROW_9_30
*153 TAP_TAPCELL_ROW_9_31
*154 _14_
*155 _15_
*156 _16_
*157 _17_
*158 _18_
*159 _19_
*160 _20_
*161 _21_
*162 _22_
*163 _23_
*164 _24_
*165 _25_
*166 _26_
*167 _27_
*168 _28_
*169 _29_
*170 _30_
*171 _31_
*172 clkbuf_0_clk
*173 clkbuf_1_0__f_clk
*174 clkbuf_1_1__f_clk
*175 input1
*176 input2
*177 input3
*178 input4
*179 input5
*180 input6
*181 input7
*182 input8
*183 output10
*184 output11
*185 output12
*186 output9

*PORTS
Comp[0] I
Comp[1] I
Comp[2] I
Comp[3] I
Comp[4] I
Comp[5] I
Comp[6] I
Dout[0] O
Dout[1] O
Dout[2] O
Samp I
clk I
eoc O

*D_NET *1 0.00108367
*CONN
*P Comp[0] I
*I *175:A I *D sky130_fd_sc_hd__buf_2
*CAP
1 Comp[0] 0.000541837
2 *175:A 0.000541837
3 *175:A *182:A 0
*RES
1 Comp[0] *175:A 13.05 
*END

*D_NET *2 0.00125894
*CONN
*P Comp[1] I
*I *176:A I *D sky130_fd_sc_hd__buf_2
*CAP
1 Comp[1] 0.000408783
2 *176:A 0.000408783
3 *176:A *177:A 0.00044137
*RES
1 Comp[1] *176:A 13.935 
*END

*D_NET *3 0.00132618
*CONN
*P Comp[2] I
*I *177:A I *D sky130_fd_sc_hd__buf_2
*CAP
1 Comp[2] 0.000442406
2 *177:A 0.000442406
3 *176:A *177:A 0.00044137
*RES
1 Comp[2] *177:A 14.175 
*END

*D_NET *4 0.000985406
*CONN
*P Comp[3] I
*I *178:A I *D sky130_fd_sc_hd__buf_2
*CAP
1 Comp[3] 0.000279562
2 *178:A 0.000279562
3 *178:A *181:A 0.000426281
*RES
1 Comp[3] *178:A 8.09377 
*END

*D_NET *5 0.000975305
*CONN
*P Comp[4] I
*I *179:A I *D sky130_fd_sc_hd__buf_2
*CAP
1 Comp[4] 0.000191167
2 *179:A 0.000191167
3 *179:A *180:A 0.000345072
4 *179:A *181:A 0.000238312
5 *179:A *40:12 9.58678e-06
*RES
1 Comp[4] *179:A 5.72663 
*END

*D_NET *6 0.00119299
*CONN
*P Comp[5] I
*I *180:A I *D sky130_fd_sc_hd__buf_2
*CAP
1 Comp[5] 0.000396851
2 *180:A 0.000396851
3 *180:A *160:A 0
4 *180:A *40:12 4.89078e-05
5 *180:A *42:12 5.31158e-06
6 *179:A *180:A 0.000345072
*RES
1 Comp[5] *180:A 6.9797 
*END

*D_NET *7 0.00139757
*CONN
*P Comp[6] I
*I *181:A I *D sky130_fd_sc_hd__buf_2
*CAP
1 Comp[6] 0.000348667
2 *181:A 0.000348667
3 *181:A *39:6 3.56402e-05
4 *178:A *181:A 0.000426281
5 *179:A *181:A 0.000238312
*RES
1 Comp[6] *181:A 10.0253 
*END

*D_NET *8 0.000777898
*CONN
*P Dout[0] O
*I *186:X O *D sky130_fd_sc_hd__buf_2
*CAP
1 Dout[0] 0.000388949
2 *186:X 0.000388949
3 Dout[0] Dout[1] 0
*RES
1 *186:X Dout[0] 5.31543 
*END

*D_NET *9 0.000779458
*CONN
*P Dout[1] O
*I *183:X O *D sky130_fd_sc_hd__buf_2
*CAP
1 Dout[1] 0.000389729
2 *183:X 0.000389729
3 Dout[1] *172:A 0
4 Dout[0] Dout[1] 0
*RES
1 *183:X Dout[1] 5.31543 
*END

*D_NET *10 0.00102465
*CONN
*P Dout[2] O
*I *184:X O *D sky130_fd_sc_hd__buf_2
*CAP
1 Dout[2] 0.000444872
2 *184:X 0.000444872
3 Dout[2] eoc 6.7454e-05
4 Dout[2] *172:A 6.7454e-05
*RES
1 *184:X Dout[2] 10.4547 
*END

*D_NET *11 0.00108893
*CONN
*P Samp I
*I *182:A I *D sky130_fd_sc_hd__buf_2
*CAP
1 Samp 0.00053558
2 *182:A 0.00053558
3 *182:A *155:B_N 1.77665e-05
4 *175:A *182:A 0
*RES
1 Samp *182:A 13.05 
*END

*D_NET *12 0.00128964
*CONN
*P clk I
*I *172:A I *D sky130_fd_sc_hd__clkbuf_16
*CAP
1 clk 0.000524144
2 *172:A 0.000524144
3 *172:A eoc 0.000173899
4 *172:A *184:A 0
5 Dout[1] *172:A 0
6 Dout[2] *172:A 6.7454e-05
*RES
1 clk *172:A 7.61043 
*END

*D_NET *13 0.000800037
*CONN
*P eoc O
*I *185:X O *D sky130_fd_sc_hd__buf_2
*CAP
1 eoc 0.000275008
2 *185:X 0.000275008
3 eoc *185:A 8.66976e-06
4 Dout[2] eoc 6.7454e-05
5 *172:A eoc 0.000173899
*RES
1 *185:X eoc 5.31543 
*END

*D_NET *16 0.000754257
*CONN
*I *168:D I *D sky130_fd_sc_hd__dfxtp_1
*I *154:Y O *D sky130_fd_sc_hd__inv_1
*CAP
1 *168:D 0.000359809
2 *154:Y 0.000359809
3 *168:D *168:CLK 2.47313e-05
4 *168:D *31:12 9.90763e-06
*RES
1 *154:Y *168:D 8.19125 
*END

*D_NET *17 0.0016724
*CONN
*I *170:D I *D sky130_fd_sc_hd__dfxtp_1
*I *162:Y O *D sky130_fd_sc_hd__o21ai_0
*CAP
1 *170:D 0.000744478
2 *162:Y 0.000744478
3 *170:D *171:CLK 8.53011e-05
4 *170:D *32:12 9.81401e-05
*RES
1 *162:Y *170:D 13.8837 
*END

*D_NET *18 0.00173828
*CONN
*I *171:D I *D sky130_fd_sc_hd__dfxtp_1
*I *165:Y O *D sky130_fd_sc_hd__o21ai_0
*CAP
1 *171:D 0.000819221
2 *165:Y 0.000819221
3 *171:D *165:A2 1.07593e-05
4 *171:D *165:B1 6.72833e-06
5 *171:D *21:16 8.23457e-05
*RES
1 *165:Y *171:D 14.5737 
*END

*D_NET *19 0.00207887
*CONN
*I *169:D I *D sky130_fd_sc_hd__dfxtp_1
*I *167:Y O *D sky130_fd_sc_hd__nor2b_1
*CAP
1 *169:D 0.000907679
2 *167:Y 0.000907679
3 *169:D *169:CLK 0.0001111
4 *169:D *173:A 0.000152415
*RES
1 *167:Y *169:D 21.4837 
*END

*D_NET *20 0.00282321
*CONN
*I *161:A I *D sky130_fd_sc_hd__nand3_1
*I *156:D I *D sky130_fd_sc_hd__nand4_1
*I *164:B I *D sky130_fd_sc_hd__nand3_1
*I *155:Y O *D sky130_fd_sc_hd__nor2b_1
*CAP
1 *161:A 3.37959e-05
2 *156:D 1.29939e-05
3 *164:B 1.38341e-05
4 *155:Y 0.000703814
5 *20:20 8.77979e-05
6 *20:16 0.000798579
7 *156:D *164:A 9.12671e-06
8 *161:A *37:16 8.52883e-05
9 *164:B *156:C 8.64599e-05
10 *164:B *161:C 1.54665e-05
11 *164:B *164:A 2.88357e-05
12 *20:16 *161:C 5.96623e-06
13 *20:16 *162:B1 6.29387e-05
14 *20:16 *167:A 0.000203594
15 *20:16 *167:B_N 0
16 *20:16 *21:10 0.00013475
17 *20:16 *21:16 0.000156916
18 *20:20 *156:B 0.0001615
19 *20:20 *156:C 4.89395e-05
20 *20:20 *161:C 0.000122821
21 *20:20 *164:A 3.64632e-05
22 *20:20 *37:16 1.33285e-05
*RES
1 *155:Y *20:16 18.695 
2 *20:16 *20:20 2.535 
3 *20:20 *164:B 2.395 
4 *20:20 *156:D 1.96 
5 *20:16 *161:A 2.395 
*END

*D_NET *21 0.00125492
*CONN
*I *162:A1 I *D sky130_fd_sc_hd__o21ai_0
*I *165:A1 I *D sky130_fd_sc_hd__o21ai_0
*I *167:A I *D sky130_fd_sc_hd__nor2b_1
*I *156:Y O *D sky130_fd_sc_hd__nand4_1
*CAP
1 *162:A1 0
2 *165:A1 0
3 *167:A 9.67026e-05
4 *156:Y 0.000104187
5 *21:16 0.000207556
6 *21:10 0.00021504
7 *21:10 *164:A 2.69153e-05
8 *21:16 *165:A2 2.69153e-05
9 *171:D *21:16 8.23457e-05
10 *20:16 *167:A 0.000203594
11 *20:16 *21:10 0.00013475
12 *20:16 *21:16 0.000156916
*RES
1 *156:Y *21:10 5.685 
2 *21:10 *21:16 4.685 
3 *21:16 *167:A 8 
4 *21:16 *165:A1 1.6 
5 *21:10 *162:A1 3.6 
*END

*D_NET *22 0.000152237
*CONN
*I *158:B I *D sky130_fd_sc_hd__nand2_1
*I *157:Y O *D sky130_fd_sc_hd__xnor2_1
*CAP
1 *158:B 4.98648e-05
2 *157:Y 4.98648e-05
3 *158:B *158:A 5.25073e-05
*RES
1 *157:Y *158:B 4.265 
*END

*D_NET *23 0.000518416
*CONN
*I *162:A2 I *D sky130_fd_sc_hd__o21ai_0
*I *158:Y O *D sky130_fd_sc_hd__nand2_1
*CAP
1 *162:A2 0.00024575
2 *158:Y 0.00024575
3 *162:A2 *158:A 2.69153e-05
*RES
1 *158:Y *162:A2 6.755 
*END

*D_NET *24 0.000433425
*CONN
*I *161:B I *D sky130_fd_sc_hd__nand3_1
*I *159:Y O *D sky130_fd_sc_hd__xnor2_1
*CAP
1 *161:B 0.000146121
2 *159:Y 0.000146121
3 *161:B *156:B 7.03276e-05
4 *161:B *159:A 7.08554e-05
*RES
1 *159:Y *161:B 9.465 
*END

*D_NET *25 0.00165553
*CONN
*I *164:C I *D sky130_fd_sc_hd__nand3_1
*I *161:C I *D sky130_fd_sc_hd__nand3_1
*I *160:Y O *D sky130_fd_sc_hd__nor4_1
*CAP
1 *164:C 2.30322e-05
2 *161:C 0.000176631
3 *160:Y 0.000335508
4 *25:10 0.000535171
5 *161:C *156:C 2.17489e-05
6 *161:C *164:A 0.000208119
7 *161:C *37:16 4.77769e-05
8 *25:10 *165:A2 2.65814e-06
9 *25:10 *165:B1 8.66811e-05
10 *25:10 *166:A1 1.42674e-05
11 *25:10 *166:A2 1.19028e-05
12 *25:10 *40:12 4.77769e-05
13 *164:B *161:C 1.54665e-05
14 *20:16 *161:C 5.96623e-06
15 *20:20 *161:C 0.000122821
*RES
1 *160:Y *25:10 8.595 
2 *25:10 *161:C 11.53 
3 *25:10 *164:C 4.215 
*END

*D_NET *26 0.000296363
*CONN
*I *162:B1 I *D sky130_fd_sc_hd__o21ai_0
*I *161:Y O *D sky130_fd_sc_hd__nand3_1
*CAP
1 *162:B1 0.000103254
2 *161:Y 0.000103254
3 *162:B1 *37:16 2.69153e-05
4 *20:16 *162:B1 6.29387e-05
*RES
1 *161:Y *162:B1 9.03 
*END

*D_NET *27 0.00120296
*CONN
*I *166:B1 I *D sky130_fd_sc_hd__o21ai_0
*I *165:A2 I *D sky130_fd_sc_hd__o21ai_0
*I *163:Y O *D sky130_fd_sc_hd__nand2_1
*CAP
1 *166:B1 0
2 *165:A2 0.000222203
3 *163:Y 0.000209466
4 *27:12 0.000431669
5 *165:A2 *165:B1 0.0001615
6 *165:A2 *166:A2 1.77945e-05
7 *27:12 *163:A 2.75229e-05
8 *27:12 *165:B1 3.75882e-06
9 *27:12 *167:B_N 8.87123e-05
10 *171:D *165:A2 1.07593e-05
11 *21:16 *165:A2 2.69153e-05
12 *25:10 *165:A2 2.65814e-06
*RES
1 *163:Y *27:12 8.465 
2 *27:12 *165:A2 5.53 
3 *27:12 *166:B1 1.6 
*END

*D_NET *28 0.000765264
*CONN
*I *165:B1 I *D sky130_fd_sc_hd__o21ai_0
*I *164:Y O *D sky130_fd_sc_hd__nand3_1
*CAP
1 *165:B1 0.000253298
2 *164:Y 0.000253298
3 *165:A2 *165:B1 0.0001615
4 *171:D *165:B1 6.72833e-06
5 *25:10 *165:B1 8.66811e-05
6 *27:12 *165:B1 3.75882e-06
*RES
1 *164:Y *165:B1 12.36 
*END

*D_NET *29 0.000690984
*CONN
*I *167:B_N I *D sky130_fd_sc_hd__nor2b_1
*I *166:Y O *D sky130_fd_sc_hd__o21ai_0
*CAP
1 *167:B_N 0.000276869
2 *166:Y 0.000276869
3 *167:B_N *163:B 4.85345e-05
4 *20:16 *167:B_N 0
5 *27:12 *167:B_N 8.87123e-05
*RES
1 *166:Y *167:B_N 12.045 
*END

*D_NET *30 0.00251651
*CONN
*I *174:A I *D sky130_fd_sc_hd__clkbuf_16
*I *173:A I *D sky130_fd_sc_hd__clkbuf_16
*I *172:X O *D sky130_fd_sc_hd__clkbuf_16
*CAP
1 *174:A 0.000649546
2 *173:A 0.000445395
3 *172:X 0
4 *30:7 0.00109494
5 *173:A *169:CLK 0.000118839
6 *174:A *171:CLK 5.53753e-05
7 *169:D *173:A 0.000152415
*RES
1 *172:X *30:7 3.6 
2 *30:7 *173:A 12.12 
3 *30:7 *174:A 14.7 
*END

*D_NET *31 0.00177238
*CONN
*I *169:CLK I *D sky130_fd_sc_hd__dfxtp_1
*I *168:CLK I *D sky130_fd_sc_hd__dfxtp_1
*I *173:X O *D sky130_fd_sc_hd__clkbuf_16
*CAP
1 *169:CLK 0.000209952
2 *168:CLK 0.000102912
3 *173:X 0.000441036
4 *31:12 0.000753899
5 *168:D *168:CLK 2.47313e-05
6 *168:D *31:12 9.90763e-06
7 *169:D *169:CLK 0.0001111
8 *173:A *169:CLK 0.000118839
*RES
1 *173:X *31:12 10.715 
2 *31:12 *168:CLK 3.01 
3 *31:12 *169:CLK 9.845 
*END

*D_NET *32 0.00177515
*CONN
*I *170:CLK I *D sky130_fd_sc_hd__dfxtp_1
*I *171:CLK I *D sky130_fd_sc_hd__dfxtp_1
*I *174:X O *D sky130_fd_sc_hd__clkbuf_16
*CAP
1 *170:CLK 0
2 *171:CLK 0.000134868
3 *174:X 0.000594483
4 *32:12 0.000729351
5 *32:12 *186:A 7.76353e-05
6 *170:D *171:CLK 8.53011e-05
7 *170:D *32:12 9.81401e-05
8 *174:A *171:CLK 5.53753e-05
*RES
1 *174:X *32:12 15.905 
2 *32:12 *171:CLK 8.285 
3 *32:12 *170:CLK 1.6 
*END

*D_NET *33 0.00089405
*CONN
*I *155:B_N I *D sky130_fd_sc_hd__nor2b_1
*I *175:X O *D sky130_fd_sc_hd__buf_2
*CAP
1 *155:B_N 0.000293593
2 *175:X 0.000293593
3 *155:B_N *155:A 0.000122797
4 *155:B_N *43:12 0.0001663
5 *182:A *155:B_N 1.77665e-05
*RES
1 *175:X *155:B_N 11.805 
*END

*D_NET *34 0.000262184
*CONN
*I *183:A I *D sky130_fd_sc_hd__buf_2
*I *171:Q O *D sky130_fd_sc_hd__dfxtp_1
*CAP
1 *183:A 0.000131092
2 *171:Q 0.000131092
*RES
1 *171:Q *183:A 5.3 
*END

*D_NET *35 0.000363877
*CONN
*I *184:A I *D sky130_fd_sc_hd__buf_2
*I *169:Q O *D sky130_fd_sc_hd__dfxtp_1
*CAP
1 *184:A 0.000181938
2 *169:Q 0.000181938
3 *172:A *184:A 0
*RES
1 *169:Q *184:A 9.975 
*END

*D_NET *36 0.000245479
*CONN
*I *185:A I *D sky130_fd_sc_hd__buf_2
*I *168:Q O *D sky130_fd_sc_hd__dfxtp_1
*CAP
1 *185:A 0.000118404
2 *168:Q 0.000118404
3 eoc *185:A 8.66976e-06
*RES
1 *168:Q *185:A 9.03 
*END

*D_NET *37 0.00194194
*CONN
*I *159:A I *D sky130_fd_sc_hd__xnor2_1
*I *156:A I *D sky130_fd_sc_hd__nand4_1
*I *164:A I *D sky130_fd_sc_hd__nand3_1
*I *176:X O *D sky130_fd_sc_hd__buf_2
*CAP
1 *159:A 0.000152927
2 *156:A 0
3 *164:A 6.15819e-05
4 *176:X 0.000149276
5 *37:16 0.000391953
6 *37:10 0.000632575
7 *156:D *164:A 9.12671e-06
8 *161:A *37:16 8.52883e-05
9 *161:B *159:A 7.08554e-05
10 *161:C *164:A 0.000208119
11 *161:C *37:16 4.77769e-05
12 *162:B1 *37:16 2.69153e-05
13 *164:B *164:A 2.88357e-05
14 *20:20 *164:A 3.64632e-05
15 *20:20 *37:16 1.33285e-05
16 *21:10 *164:A 2.69153e-05
*RES
1 *176:X *37:10 5.685 
2 *37:10 *37:16 7.355 
3 *37:16 *164:A 3.79 
4 *37:16 *156:A 1.6 
5 *37:10 *159:A 6.12 
*END

*D_NET *38 0.000852879
*CONN
*I *159:B I *D sky130_fd_sc_hd__xnor2_1
*I *156:B I *D sky130_fd_sc_hd__nand4_1
*I *177:X O *D sky130_fd_sc_hd__buf_2
*CAP
1 *159:B 0
2 *156:B 0.000222585
3 *177:X 8.79404e-05
4 *38:8 0.000310525
5 *161:B *156:B 7.03276e-05
6 *20:20 *156:B 0.0001615
*RES
1 *177:X *38:8 4.98 
2 *38:8 *156:B 7.275 
3 *38:8 *159:B 3.6 
*END

*D_NET *39 0.00215622
*CONN
*I *156:C I *D sky130_fd_sc_hd__nand4_1
*I *160:A I *D sky130_fd_sc_hd__nor4_1
*I *178:X O *D sky130_fd_sc_hd__buf_2
*CAP
1 *156:C 0.000380328
2 *160:A 0.000267422
3 *178:X 0.000250371
4 *39:6 0.000898122
5 *160:A *41:19 1.0397e-05
6 *160:A *42:18 0.000156786
7 *161:C *156:C 2.17489e-05
8 *164:B *156:C 8.64599e-05
9 *180:A *160:A 0
10 *181:A *39:6 3.56402e-05
11 *20:20 *156:C 4.89395e-05
*RES
1 *178:X *39:6 4.465 
2 *39:6 *160:A 10.295 
3 *39:6 *156:C 6.19 
*END

*D_NET *40 0.00186502
*CONN
*I *160:D I *D sky130_fd_sc_hd__nor4_1
*I *158:A I *D sky130_fd_sc_hd__nand2_1
*I *163:B I *D sky130_fd_sc_hd__nand2_1
*I *179:X O *D sky130_fd_sc_hd__buf_2
*CAP
1 *160:D 0
2 *158:A 0.000180465
3 *163:B 0.000152708
4 *179:X 0.00033826
5 *40:14 0.000333173
6 *40:12 0.00033826
7 *158:A *41:19 5.86575e-05
8 *163:B *163:A 0.000123165
9 *163:B *41:19 3.79062e-05
10 *40:12 *166:A1 6.81928e-05
11 *158:B *158:A 5.25073e-05
12 *162:A2 *158:A 2.69153e-05
13 *167:B_N *163:B 4.85345e-05
14 *179:A *40:12 9.58678e-06
15 *180:A *40:12 4.89078e-05
16 *25:10 *40:12 4.77769e-05
*RES
1 *179:X *40:12 10.97 
2 *40:12 *40:14 2 
3 *40:14 *163:B 6.705 
4 *40:14 *158:A 6.825 
5 *40:12 *160:D 1.6 
*END

*D_NET *41 0.00172497
*CONN
*I *166:A2 I *D sky130_fd_sc_hd__o21ai_0
*I *160:C I *D sky130_fd_sc_hd__nor4_1
*I *163:A I *D sky130_fd_sc_hd__nand2_1
*I *157:B I *D sky130_fd_sc_hd__xnor2_1
*I *180:X O *D sky130_fd_sc_hd__buf_2
*CAP
1 *166:A2 9.75197e-05
2 *160:C 0
3 *163:A 0.000159661
4 *157:B 0
5 *180:X 0.000103567
6 *41:34 9.75197e-05
7 *41:19 0.000312761
8 *41:8 0.000256667
9 *166:A2 *166:A1 0.000121043
10 *41:8 *42:12 8.54923e-05
11 *41:19 *42:12 4.66108e-05
12 *41:19 *42:18 0.000156786
13 *158:A *41:19 5.86575e-05
14 *160:A *41:19 1.0397e-05
15 *163:B *163:A 0.000123165
16 *163:B *41:19 3.79062e-05
17 *165:A2 *166:A2 1.77945e-05
18 *25:10 *166:A2 1.19028e-05
19 *27:12 *163:A 2.75229e-05
*RES
1 *180:X *41:8 3.445 
2 *41:8 *157:B 1.6 
3 *41:8 *41:19 5.45 
4 *41:19 *163:A 6.735 
5 *41:19 *41:34 2 
6 *41:34 *160:C 1.6 
7 *41:34 *166:A2 3.445 
*END

*D_NET *42 0.00127791
*CONN
*I *157:A I *D sky130_fd_sc_hd__xnor2_1
*I *160:B I *D sky130_fd_sc_hd__nor4_1
*I *166:A1 I *D sky130_fd_sc_hd__o21ai_0
*I *181:X O *D sky130_fd_sc_hd__buf_2
*CAP
1 *157:A 0
2 *160:B 0
3 *166:A1 6.89451e-05
4 *181:X 0.000194965
5 *42:18 0.000116748
6 *42:12 0.000242767
7 *160:A *42:18 0.000156786
8 *166:A2 *166:A1 0.000121043
9 *180:A *42:12 5.31158e-06
10 *25:10 *166:A1 1.42674e-05
11 *40:12 *166:A1 6.81928e-05
12 *41:8 *42:12 8.54923e-05
13 *41:19 *42:12 4.66108e-05
14 *41:19 *42:18 0.000156786
*RES
1 *181:X *42:12 9.065 
2 *42:12 *42:18 5.89 
3 *42:18 *166:A1 3.445 
4 *42:18 *160:B 1.6 
5 *42:12 *157:A 1.6 
*END

*D_NET *43 0.00131493
*CONN
*I *154:A I *D sky130_fd_sc_hd__inv_1
*I *155:A I *D sky130_fd_sc_hd__nor2b_1
*I *182:X O *D sky130_fd_sc_hd__buf_2
*CAP
1 *154:A 0.000237497
2 *155:A 0.00015211
3 *182:X 0.000123311
4 *43:12 0.000512918
5 *155:B_N *155:A 0.000122797
6 *155:B_N *43:12 0.0001663
*RES
1 *182:X *43:12 8.03 
2 *43:12 *155:A 4.135 
3 *43:12 *154:A 5.30125 
*END

*D_NET *44 0.000335507
*CONN
*I *186:A I *D sky130_fd_sc_hd__buf_2
*I *170:Q O *D sky130_fd_sc_hd__dfxtp_1
*CAP
1 *186:A 0.000128936
2 *170:Q 0.000128936
3 *32:12 *186:A 7.76353e-05
*RES
1 *170:Q *186:A 9.63 
*END
